RT is False
Default write of storage_offers_DA.csv just to have a file (but constraint should be inactive)
Reading model...
...model read.
creating competitive generators file...
...competitive generators recorded.
Loading data...
.. day-ahead data with real-time VRE data read.
Compiling instance...
...instance created.
Creating Offer Mitigation (model will solve as dispatch if TRUE)...
NOTE: storage offers will not be mitigated
...storage offer mitigation file created
Converting model to MPEC...
...converted
NOTE: initial MIP solve with only storage competitive to get feasible solution
Solving...

Welcome to IBM(R) ILOG(R) CPLEX(R) Interactive Optimizer 12.9.0.0
  with Simplex, Mixed Integer & Barrier Optimizers
5725-A06 5725-A29 5724-Y48 5724-Y49 5724-Y54 5724-Y55 5655-Y21
Copyright IBM Corp. 1988, 2019.  All Rights Reserved.

Type 'help' for a list of available commands.
Type 'help' followed by a command name for more
information on commands.

CPLEX> Logfile 'cplex.log' closed.
Logfile 'C:\Users\llavin\Desktop\test919\logs\tmp97c1i6fp.cplex.log' open.
CPLEX> New value for parallel optimization mode: -1
CPLEX> New value for mixed integer optimality gap tolerance: 0.01
CPLEX> New value for integrality tolerance: 1e-09
CPLEX> New value for feasibility tolerance: 0.01
CPLEX> New value for deterministic time limit in ticks: 100000
CPLEX> Problem 'C:\Users\llavin\Desktop\test919\logs\tmpeeoblff4.pyomo.lp' read.
Read time = 0.24 sec. (13.86 ticks)
CPLEX> Problem name         : C:\Users\llavin\Desktop\test919\logs\tmpeeoblff4.pyomo.lp
Objective sense      : Maximize
Variables            :   53321  [Nneg: 1,  Box: 21806,  Free: 4416,
                                 Binary: 27098]
Objective nonzeros   :    9029
Linear constraints   :  122164  [Less: 40983,  Greater: 58612,  Equal: 22569]
  Nonzeros           :  288457
  RHS nonzeros       :   66982

Variables            : Min LB: -5000.000        Max UB: 1000000.       
Objective nonzeros   : Min   : 0.2250000        Max   : 2500.000       
Linear constraints   :
  Nonzeros           : Min   : 0.2250000        Max   : 1000000.       
  RHS nonzeros       : Min   : 0.2250000        Max   : 1000000.       
CPLEX> CPXPARAM_Parallel                                -1
CPXPARAM_Simplex_Tolerances_Feasibility          0.01
CPXPARAM_DetTimeLimit                            100000
CPXPARAM_MIP_Tolerances_MIPGap                   0.01
CPXPARAM_MIP_Tolerances_Integrality              1.0000000000000001e-09
Tried aggregator 3 times.
MIP Presolve eliminated 88097 rows and 18977 columns.
MIP Presolve added 3355 rows and 0 columns.
MIP Presolve modified 24492 coefficients.
Aggregator did 12832 substitutions.
Reduced MIP has 24590 rows, 20956 columns, and 68869 nonzeros.
Reduced MIP has 8294 binaries, 0 generals, 0 SOSs, and 0 indicators.
Presolve time = 0.30 sec. (171.29 ticks)
Probing fixed 433 vars, tightened 2941 bounds.
Probing time = 1.22 sec. (904.04 ticks)
Tried aggregator 2 times.
MIP Presolve eliminated 968 rows and 869 columns.
MIP Presolve modified 2211 coefficients.
Aggregator did 52 substitutions.
Reduced MIP has 23570 rows, 20035 columns, and 65898 nonzeros.
Reduced MIP has 7860 binaries, 0 generals, 0 SOSs, and 0 indicators.
Presolve time = 0.09 sec. (66.47 ticks)
Probing fixed 4 vars, tightened 7 bounds.
Probing time = 0.17 sec. (114.45 ticks)
Clique table members: 8734.
MIP emphasis: balance optimality and feasibility.
MIP search method: dynamic search.
Parallel mode: opportunistic, using up to 32 threads.
Root relaxation solution time = 0.39 sec. (466.92 ticks)

        Nodes                                         Cuts/
   Node  Left     Objective  IInf  Best Integer    Best Bound    ItCnt     Gap

      0     0      -23.4052   786                    -23.4052     3818         
      0     0      -23.4052    13                    Cuts: 14     3823         
      0     0      -23.4052    10                     Cuts: 8     3827         
      0     0      -23.4052    10                 Impl Bds: 1     3827         
      0    16    infeasible                           Cuts: 6     3961         
Elapsed time = 8.00 sec. (4388.96 ticks, tree = 0.02 MB, solutions = 0)
*   325    67      integral     0   -18144.0233      -72.6040     5291   99.60%
*   382    52      integral     0    -7858.9267      -72.6040     4971   99.08%

Cover cuts applied:  1
Implied bound cuts applied:  11
Flow cuts applied:  14
Gomory fractional cuts applied:  4

Root node processing (before b&c):
  Real time             =    6.77 sec. (4379.55 ticks)
Parallel b&c, 32 threads:
  Real time             =    3.50 sec. (503.31 ticks)
  Sync time (average)   =    1.40 sec.
  Wait time (average)   =    0.00 sec.
                          ------------
Total (root+branch&cut) =   10.27 sec. (4882.86 ticks)

Solution pool: 6 solutions saved.

MIP - Integer optimal solution:  Objective = -2.3258673161e+02
Solution time =   10.31 sec.  Iterations = 16458  Nodes = 666
Deterministic time = 4883.01 ticks  (473.53 ticks/sec)

CPLEX> Incumbent solution written to file 'C:\Users\llavin\Desktop\test919\logs\tmpngbyrr00.cplex.sol'.
CPLEX> NOTE: no warmstart specified for MIP iteration, default behavior is true
NOTE: resolving with all competitive generators using storage-only solution to warmstart
Solving...

Welcome to IBM(R) ILOG(R) CPLEX(R) Interactive Optimizer 12.9.0.0
  with Simplex, Mixed Integer & Barrier Optimizers
5725-A06 5725-A29 5724-Y48 5724-Y49 5724-Y54 5724-Y55 5655-Y21
Copyright IBM Corp. 1988, 2019.  All Rights Reserved.

Type 'help' for a list of available commands.
Type 'help' followed by a command name for more
information on commands.

CPLEX> Logfile 'cplex.log' closed.
Logfile 'C:\Users\llavin\Desktop\test919\logs\tmpx_7_fma_.cplex.log' open.
CPLEX> New value for parallel optimization mode: -1
CPLEX> New value for mixed integer optimality gap tolerance: 0.01
CPLEX> New value for integrality tolerance: 1e-09
CPLEX> New value for feasibility tolerance: 0.01
CPLEX> New value for deterministic time limit in ticks: 100000
CPLEX> Problem 'C:\Users\llavin\Desktop\test919\logs\tmpyojld_fx.pyomo.lp' read.
Read time = 0.23 sec. (13.88 ticks)
CPLEX> MIP start file 'C:\Users\llavin\Desktop\test919\logs\tmpcd9oaadr.cplex.mst' read.
CPLEX> Problem name         : C:\Users\llavin\Desktop\test919\logs\tmpyojld_fx.pyomo.lp
Objective sense      : Maximize
Variables            :   54041  [Nneg: 1,  Box: 22526,  Free: 4416,
                                 Binary: 27098]
Objective nonzeros   :    9749
Linear constraints   :  122164  [Less: 40983,  Greater: 58612,  Equal: 22569]
  Nonzeros           :  288457
  RHS nonzeros       :   66982

Variables            : Min LB: -5000.000        Max UB: 1000000.       
Objective nonzeros   : Min   : 0.2250000        Max   : 2500.000       
Linear constraints   :
  Nonzeros           : Min   : 0.2250000        Max   : 1000000.       
  RHS nonzeros       : Min   : 0.2250000        Max   : 1000000.       
CPLEX> CPXPARAM_Parallel                                -1
CPXPARAM_Simplex_Tolerances_Feasibility          0.01
CPXPARAM_DetTimeLimit                            100000
CPXPARAM_MIP_Tolerances_MIPGap                   0.01
CPXPARAM_MIP_Tolerances_Integrality              1.0000000000000001e-09
Warning:  No solution found from 1 MIP starts.
Retaining values of one MIP start for possible repair.
Tried aggregator 3 times.
MIP Presolve eliminated 88097 rows and 19697 columns.
MIP Presolve added 3355 rows and 0 columns.
MIP Presolve modified 24492 coefficients.
Aggregator did 12832 substitutions.
Reduced MIP has 24590 rows, 20956 columns, and 68869 nonzeros.
Reduced MIP has 8294 binaries, 0 generals, 0 SOSs, and 0 indicators.
Presolve time = 0.30 sec. (171.65 ticks)
Probing fixed 433 vars, tightened 2941 bounds.
Probing time = 1.23 sec. (904.04 ticks)
Tried aggregator 2 times.
MIP Presolve eliminated 968 rows and 869 columns.
MIP Presolve modified 2211 coefficients.
Aggregator did 52 substitutions.
Reduced MIP has 23570 rows, 20035 columns, and 65898 nonzeros.
Reduced MIP has 7860 binaries, 0 generals, 0 SOSs, and 0 indicators.
Presolve time = 0.11 sec. (66.47 ticks)
Probing fixed 4 vars, tightened 7 bounds.
Probing time = 0.19 sec. (114.45 ticks)
Clique table members: 8734.
MIP emphasis: balance optimality and feasibility.
MIP search method: dynamic search.
Parallel mode: opportunistic, using up to 32 threads.
Root relaxation solution time = 0.38 sec. (466.92 ticks)

        Nodes                                         Cuts/
   Node  Left     Objective  IInf  Best Integer    Best Bound    ItCnt     Gap

      0     0      -23.4052   786                    -23.4052     3818         
      0     0      -23.4052    13                    Cuts: 14     3823         
      0     0      -23.4052    10                     Cuts: 8     3827         
      0     0      -23.4052    10                 Impl Bds: 1     3827         
Repair heuristic found nothing.
      0    26    infeasible                       Impl Bds: 1     4099         
Elapsed time = 7.98 sec. (4425.67 ticks, tree = 0.03 MB, solutions = 0)
*    52    49      integral     0    -3175.9985      -72.6040     4585   97.71%
*   335    48      integral     0     -232.5867      -72.6040     4743   68.78%

Implied bound cuts applied:  15
Flow cuts applied:  9
Gomory fractional cuts applied:  4

Root node processing (before b&c):
  Real time             =    6.95 sec. (4418.79 ticks)
Parallel b&c, 32 threads:
  Real time             =    2.69 sec. (398.32 ticks)
  Sync time (average)   =    1.34 sec.
  Wait time (average)   =    0.00 sec.
                          ------------
Total (root+branch&cut) =    9.64 sec. (4817.11 ticks)

Solution pool: 4 solutions saved.

MIP - Integer optimal solution:  Objective = -2.3258673161e+02
Solution time =    9.64 sec.  Iterations = 8883  Nodes = 366
Deterministic time = 4817.26 ticks  (499.72 ticks/sec)

CPLEX> Incumbent solution written to file 'C:\Users\llavin\Desktop\test919\logs\tmp3pz9r1j1.cplex.sol'.
CPLEX> Exporting results... 
